Welcome to sphere packing routines, relation testing division.
Welcome to Section A_9.0.
Enter depth bound:  Enter slop:  Depth bound = 32
slop = 0
Starting time:  	Sun May  3 09:41:20 1998

Starting case 1:
2.509999999999999786	2.696000000000000174
2.000000000000000000	2.510000000000000230
2.000000000000000000	2.510000000000000230
cellcount    =       1145964709		maxdepth = 15
partialtries =        147363584
impossible   =                0	domaincut    =                0
acutecut     =                0		verifycount  =        996447579
partialcount =          5959920		diff         =         -3806374
Verification succeeded.

Done.
Ending time:    	Sun May  3 23:02:29 1998

Elapsed time: 48069 seconds
diff = -35.3584		23840 cells per second


